; benchmark generated from python API
(set-info :status unknown)
(declare-fun x_months () Int)
(declare-fun x_beta () Int)
(assert
 (<= (- 1202) x_months))
(assert
 (>= 1209 x_months))
(assert
 (let ((?x5150 (mod x_months 48)))
 (let ((?x13 ((as const (Array Int Int)) 0)))
 (let ((?x15 (store ?x13 0 31)))
 (let ((?x18 (store ?x15 1 30)))
 (let ((?x20 (store ?x18 2 31)))
 (let ((?x22 (store ?x20 3 30)))
 (let ((?x24 (store ?x22 4 31)))
 (let ((?x26 (store ?x24 5 31)))
 (let ((?x28 (store ?x26 6 30)))
 (let ((?x30 (store ?x28 7 31)))
 (let ((?x32 (store ?x30 8 30)))
 (let ((?x34 (store ?x32 9 31)))
 (let ((?x36 (store ?x34 10 31)))
 (let ((?x39 (store ?x36 11 28)))
 (let ((?x41 (store ?x39 12 31)))
 (let ((?x43 (store ?x41 13 30)))
 (let ((?x45 (store ?x43 14 31)))
 (let ((?x47 (store ?x45 15 30)))
 (let ((?x49 (store ?x47 16 31)))
 (let ((?x51 (store ?x49 17 31)))
 (let ((?x53 (store ?x51 18 30)))
 (let ((?x55 (store ?x53 19 31)))
 (let ((?x57 (store ?x55 20 30)))
 (let ((?x59 (store ?x57 21 31)))
 (let ((?x61 (store ?x59 22 31)))
 (let ((?x63 (store ?x61 23 28)))
 (let ((?x65 (store ?x63 24 31)))
 (let ((?x67 (store ?x65 25 30)))
 (let ((?x69 (store ?x67 26 31)))
 (let ((?x71 (store ?x69 27 30)))
 (let ((?x72 (store ?x71 28 31)))
 (let ((?x74 (store ?x72 29 31)))
 (let ((?x75 (store ?x74 30 30)))
 (let ((?x76 (store ?x75 31 31)))
 (let ((?x78 (store ?x76 32 30)))
 (let ((?x80 (store ?x78 33 31)))
 (let ((?x82 (store ?x80 34 31)))
 (let ((?x84 (store ?x82 35 28)))
 (let ((?x86 (store ?x84 36 31)))
 (let ((?x88 (store ?x86 37 30)))
 (let ((?x90 (store ?x88 38 31)))
 (let ((?x92 (store ?x90 39 30)))
 (let ((?x94 (store ?x92 40 31)))
 (let ((?x96 (store ?x94 41 31)))
 (let ((?x98 (store ?x96 42 30)))
 (let ((?x100 (store ?x98 43 31)))
 (let ((?x102 (store ?x100 44 30)))
 (let ((?x104 (store ?x102 45 31)))
 (let ((?x106 (store ?x104 46 31)))
 (let ((?x108 (store ?x106 47 29)))
 (let ((?x1831 (ite (or (= 22802 (+ x_months 24003)) (= 25202 (+ x_months 24003))) 28 (select ?x108 ?x5150))))
 (let (($x3777 (<= 0 x_beta)))
 (and $x3777 (< x_beta ?x1831)))))))))))))))))))))))))))))))))))))))))))))))))))))))
(assert
 (let (($x1871 (and (= x_months (- (+ (* 2023 12) 1) 24003)) (<= 30 x_beta))))
 (or (> x_months (- (+ (* 2023 12) 1) 24003)) $x1871)))
(assert
 (let ((?x389 (+ x_months 1)))
(let ((?x5168 (mod ?x389 48)))
(let ((?x4580 (ite (> 22803 (+ ?x389 24003)) 1 (ite (<= 25203 (+ ?x389 24003)) (- 1) 0))))
(let ((?x13 ((as const (Array Int Int)) 0)))
(let ((?x15 (store ?x13 0 31)))
(let ((?x18 (store ?x15 1 30)))
(let ((?x20 (store ?x18 2 31)))
(let ((?x22 (store ?x20 3 30)))
(let ((?x24 (store ?x22 4 31)))
(let ((?x26 (store ?x24 5 31)))
(let ((?x28 (store ?x26 6 30)))
(let ((?x30 (store ?x28 7 31)))
(let ((?x32 (store ?x30 8 30)))
(let ((?x34 (store ?x32 9 31)))
(let ((?x36 (store ?x34 10 31)))
(let ((?x39 (store ?x36 11 28)))
(let ((?x41 (store ?x39 12 31)))
(let ((?x43 (store ?x41 13 30)))
(let ((?x45 (store ?x43 14 31)))
(let ((?x47 (store ?x45 15 30)))
(let ((?x49 (store ?x47 16 31)))
(let ((?x51 (store ?x49 17 31)))
(let ((?x53 (store ?x51 18 30)))
(let ((?x55 (store ?x53 19 31)))
(let ((?x57 (store ?x55 20 30)))
(let ((?x59 (store ?x57 21 31)))
(let ((?x61 (store ?x59 22 31)))
(let ((?x63 (store ?x61 23 28)))
(let ((?x65 (store ?x63 24 31)))
(let ((?x67 (store ?x65 25 30)))
(let ((?x69 (store ?x67 26 31)))
(let ((?x71 (store ?x69 27 30)))
(let ((?x72 (store ?x71 28 31)))
(let ((?x74 (store ?x72 29 31)))
(let ((?x75 (store ?x74 30 30)))
(let ((?x76 (store ?x75 31 31)))
(let ((?x78 (store ?x76 32 30)))
(let ((?x80 (store ?x78 33 31)))
(let ((?x82 (store ?x80 34 31)))
(let ((?x84 (store ?x82 35 28)))
(let ((?x86 (store ?x84 36 31)))
(let ((?x88 (store ?x86 37 30)))
(let ((?x90 (store ?x88 38 31)))
(let ((?x92 (store ?x90 39 30)))
(let ((?x94 (store ?x92 40 31)))
(let ((?x96 (store ?x94 41 31)))
(let ((?x98 (store ?x96 42 30)))
(let ((?x100 (store ?x98 43 31)))
(let ((?x102 (store ?x100 44 30)))
(let ((?x104 (store ?x102 45 31)))
(let ((?x106 (store ?x104 46 31)))
(let ((?x108 (store ?x106 47 29)))
(let ((?x5380 (ite (or (= 22802 (+ ?x389 24003)) (= 25202 (+ ?x389 24003))) 28 (select ?x108 ?x5168))))
(let ((?x4545 (- ?x5380 1)))
(let ((?x114 (store (store (store (store ?x13 0 0) 1 31) 2 61) 3 92)))
(let ((?x122 (store (store (store (store ?x114 4 122) 5 153) 6 184) 7 214)))
(let ((?x130 (store (store (store (store ?x122 8 245) 9 275) 10 306) 11 337)))
(let ((?x138 (store (store (store (store ?x130 12 365) 13 396) 14 426) 15 457)))
(let ((?x146 (store (store (store (store ?x138 16 487) 17 518) 18 549) 19 579)))
(let ((?x154 (store (store (store (store ?x146 20 610) 21 640) 22 671) 23 702)))
(let ((?x162 (store (store (store (store ?x154 24 730) 25 761) 26 791) 27 822)))
(let ((?x170 (store (store (store (store ?x162 28 852) 29 883) 30 914) 31 944)))
(let ((?x178 (store (store (store (store ?x170 32 975) 33 1005) 34 1036) 35 1067)))
(let ((?x186 (store (store (store (store ?x178 36 1095) 37 1126) 38 1156) 39 1187)))
(let ((?x194 (store (store (store (store ?x186 40 1217) 41 1248) 42 1279) 43 1309)))
(let ((?x202 (store (store (store (store ?x194 44 1340) 45 1370) 46 1401) 47 1432)))
(let ((?x4269 (+ (select ?x202 ?x5168) (ite (> 0 x_beta) 0 (ite (> x_beta ?x4545) ?x4545 x_beta)))))
(let ((?x1992 (+ (+ ?x4269 ?x4580) 0)))
(let ((?x870 (+ ?x389 (* (div ?x1992 1461) 48))))
(let ((?x5912 (+ (+ ?x870 (- 1 ?x5168)) 24003)))
(let ((?x403 (+ (select ?x202 1) (ite (> 22803 ?x5912) 1 (ite (<= 25203 ?x5912) (- 1) 0)))))
(let ((?x2037 (mod ?x1992 1461)))
(let ((?x6794 (ite (> 22803 (+ (+ ?x870 (- 2 ?x5168)) 24003)) 1 (ite (<= 25203 (+ (+ ?x870 (- 2 ?x5168)) 24003)) (- 1) 0))))
(let ((?x5995 (ite (>= ?x2037 (+ (select ?x202 2) ?x6794)) 2 (ite (>= ?x2037 ?x403) 1 0))))
(let ((?x2708 (ite (> 22803 (+ (+ ?x870 (- 3 ?x5168)) 24003)) 1 (ite (<= 25203 (+ (+ ?x870 (- 3 ?x5168)) 24003)) (- 1) 0))))
(let ((?x286 (ite (> 22803 (+ (+ ?x870 (- 4 ?x5168)) 24003)) 1 (ite (<= 25203 (+ (+ ?x870 (- 4 ?x5168)) 24003)) (- 1) 0))))
(let ((?x3806 (ite (>= ?x2037 (+ (select ?x202 4) ?x286)) 4 (ite (>= ?x2037 (+ (select ?x202 3) ?x2708)) 3 ?x5995))))
(let ((?x1276 (ite (> 22803 (+ (+ ?x870 (- 5 ?x5168)) 24003)) 1 (ite (<= 25203 (+ (+ ?x870 (- 5 ?x5168)) 24003)) (- 1) 0))))
(let ((?x1251 (ite (> 22803 (+ (+ ?x870 (- 6 ?x5168)) 24003)) 1 (ite (<= 25203 (+ (+ ?x870 (- 6 ?x5168)) 24003)) (- 1) 0))))
(let ((?x3956 (ite (>= ?x2037 (+ (select ?x202 6) ?x1251)) 6 (ite (>= ?x2037 (+ (select ?x202 5) ?x1276)) 5 ?x3806))))
(let ((?x236 (ite (> 22803 (+ (+ ?x870 (- 7 ?x5168)) 24003)) 1 (ite (<= 25203 (+ (+ ?x870 (- 7 ?x5168)) 24003)) (- 1) 0))))
(let ((?x4837 (ite (> 22803 (+ (+ ?x870 (- 8 ?x5168)) 24003)) 1 (ite (<= 25203 (+ (+ ?x870 (- 8 ?x5168)) 24003)) (- 1) 0))))
(let ((?x1262 (ite (>= ?x2037 (+ (select ?x202 8) ?x4837)) 8 (ite (>= ?x2037 (+ (select ?x202 7) ?x236)) 7 ?x3956))))
(let ((?x2691 (ite (> 22803 (+ (+ ?x870 (- 9 ?x5168)) 24003)) 1 (ite (<= 25203 (+ (+ ?x870 (- 9 ?x5168)) 24003)) (- 1) 0))))
(let ((?x5066 (ite (> 22803 (+ (+ ?x870 (- 10 ?x5168)) 24003)) 1 (ite (<= 25203 (+ (+ ?x870 (- 10 ?x5168)) 24003)) (- 1) 0))))
(let ((?x821 (ite (>= ?x2037 (+ (select ?x202 10) ?x5066)) 10 (ite (>= ?x2037 (+ (select ?x202 9) ?x2691)) 9 ?x1262))))
(let ((?x2145 (ite (> 22803 (+ (+ ?x870 (- 11 ?x5168)) 24003)) 1 (ite (<= 25203 (+ (+ ?x870 (- 11 ?x5168)) 24003)) (- 1) 0))))
(let ((?x2813 (ite (> 22803 (+ (+ ?x870 (- 12 ?x5168)) 24003)) 1 (ite (<= 25203 (+ (+ ?x870 (- 12 ?x5168)) 24003)) (- 1) 0))))
(let ((?x862 (ite (>= ?x2037 (+ (select ?x202 12) ?x2813)) 12 (ite (>= ?x2037 (+ (select ?x202 11) ?x2145)) 11 ?x821))))
(let ((?x501 (ite (> 22803 (+ (+ ?x870 (- 13 ?x5168)) 24003)) 1 (ite (<= 25203 (+ (+ ?x870 (- 13 ?x5168)) 24003)) (- 1) 0))))
(let ((?x3475 (ite (> 22803 (+ (+ ?x870 (- 14 ?x5168)) 24003)) 1 (ite (<= 25203 (+ (+ ?x870 (- 14 ?x5168)) 24003)) (- 1) 0))))
(let ((?x4224 (ite (>= ?x2037 (+ (select ?x202 14) ?x3475)) 14 (ite (>= ?x2037 (+ (select ?x202 13) ?x501)) 13 ?x862))))
(let ((?x1781 (ite (> 22803 (+ (+ ?x870 (- 15 ?x5168)) 24003)) 1 (ite (<= 25203 (+ (+ ?x870 (- 15 ?x5168)) 24003)) (- 1) 0))))
(let ((?x3504 (ite (> 22803 (+ (+ ?x870 (- 16 ?x5168)) 24003)) 1 (ite (<= 25203 (+ (+ ?x870 (- 16 ?x5168)) 24003)) (- 1) 0))))
(let ((?x5096 (ite (>= ?x2037 (+ (select ?x202 16) ?x3504)) 16 (ite (>= ?x2037 (+ (select ?x202 15) ?x1781)) 15 ?x4224))))
(let ((?x4178 (ite (> 22803 (+ (+ ?x870 (- 17 ?x5168)) 24003)) 1 (ite (<= 25203 (+ (+ ?x870 (- 17 ?x5168)) 24003)) (- 1) 0))))
(let ((?x2368 (ite (> 22803 (+ (+ ?x870 (- 18 ?x5168)) 24003)) 1 (ite (<= 25203 (+ (+ ?x870 (- 18 ?x5168)) 24003)) (- 1) 0))))
(let ((?x3910 (ite (>= ?x2037 (+ (select ?x202 18) ?x2368)) 18 (ite (>= ?x2037 (+ (select ?x202 17) ?x4178)) 17 ?x5096))))
(let ((?x6189 (ite (> 22803 (+ (+ ?x870 (- 19 ?x5168)) 24003)) 1 (ite (<= 25203 (+ (+ ?x870 (- 19 ?x5168)) 24003)) (- 1) 0))))
(let ((?x5692 (ite (> 22803 (+ (+ ?x870 (- 20 ?x5168)) 24003)) 1 (ite (<= 25203 (+ (+ ?x870 (- 20 ?x5168)) 24003)) (- 1) 0))))
(let ((?x3097 (ite (>= ?x2037 (+ (select ?x202 20) ?x5692)) 20 (ite (>= ?x2037 (+ (select ?x202 19) ?x6189)) 19 ?x3910))))
(let ((?x6244 (ite (> 22803 (+ (+ ?x870 (- 21 ?x5168)) 24003)) 1 (ite (<= 25203 (+ (+ ?x870 (- 21 ?x5168)) 24003)) (- 1) 0))))
(let ((?x6503 (ite (> 22803 (+ (+ ?x870 (- 22 ?x5168)) 24003)) 1 (ite (<= 25203 (+ (+ ?x870 (- 22 ?x5168)) 24003)) (- 1) 0))))
(let ((?x4209 (ite (>= ?x2037 (+ (select ?x202 22) ?x6503)) 22 (ite (>= ?x2037 (+ (select ?x202 21) ?x6244)) 21 ?x3097))))
(let ((?x6625 (ite (> 22803 (+ (+ ?x870 (- 23 ?x5168)) 24003)) 1 (ite (<= 25203 (+ (+ ?x870 (- 23 ?x5168)) 24003)) (- 1) 0))))
(let ((?x701 (ite (> 22803 (+ (+ ?x870 (- 24 ?x5168)) 24003)) 1 (ite (<= 25203 (+ (+ ?x870 (- 24 ?x5168)) 24003)) (- 1) 0))))
(let ((?x4430 (ite (>= ?x2037 (+ (select ?x202 24) ?x701)) 24 (ite (>= ?x2037 (+ (select ?x202 23) ?x6625)) 23 ?x4209))))
(let ((?x4903 (ite (> 22803 (+ (+ ?x870 (- 25 ?x5168)) 24003)) 1 (ite (<= 25203 (+ (+ ?x870 (- 25 ?x5168)) 24003)) (- 1) 0))))
(let ((?x4547 (ite (> 22803 (+ (+ ?x870 (- 26 ?x5168)) 24003)) 1 (ite (<= 25203 (+ (+ ?x870 (- 26 ?x5168)) 24003)) (- 1) 0))))
(let ((?x4408 (ite (>= ?x2037 (+ (select ?x202 26) ?x4547)) 26 (ite (>= ?x2037 (+ (select ?x202 25) ?x4903)) 25 ?x4430))))
(let ((?x5412 (ite (> 22803 (+ (+ ?x870 (- 27 ?x5168)) 24003)) 1 (ite (<= 25203 (+ (+ ?x870 (- 27 ?x5168)) 24003)) (- 1) 0))))
(let ((?x4812 (ite (> 22803 (+ (+ ?x870 (- 28 ?x5168)) 24003)) 1 (ite (<= 25203 (+ (+ ?x870 (- 28 ?x5168)) 24003)) (- 1) 0))))
(let ((?x6743 (ite (>= ?x2037 (+ (select ?x202 28) ?x4812)) 28 (ite (>= ?x2037 (+ (select ?x202 27) ?x5412)) 27 ?x4408))))
(let ((?x2292 (ite (> 22803 (+ (+ ?x870 (- 29 ?x5168)) 24003)) 1 (ite (<= 25203 (+ (+ ?x870 (- 29 ?x5168)) 24003)) (- 1) 0))))
(let ((?x4693 (ite (> 22803 (+ (+ ?x870 (- 30 ?x5168)) 24003)) 1 (ite (<= 25203 (+ (+ ?x870 (- 30 ?x5168)) 24003)) (- 1) 0))))
(let ((?x6781 (ite (>= ?x2037 (+ (select ?x202 30) ?x4693)) 30 (ite (>= ?x2037 (+ (select ?x202 29) ?x2292)) 29 ?x6743))))
(let ((?x1103 (ite (> 22803 (+ (+ ?x870 (- 31 ?x5168)) 24003)) 1 (ite (<= 25203 (+ (+ ?x870 (- 31 ?x5168)) 24003)) (- 1) 0))))
(let ((?x4843 (ite (> 22803 (+ (+ ?x870 (- 32 ?x5168)) 24003)) 1 (ite (<= 25203 (+ (+ ?x870 (- 32 ?x5168)) 24003)) (- 1) 0))))
(let ((?x4792 (ite (>= ?x2037 (+ (select ?x202 32) ?x4843)) 32 (ite (>= ?x2037 (+ (select ?x202 31) ?x1103)) 31 ?x6781))))
(let ((?x2081 (ite (> 22803 (+ (+ ?x870 (- 33 ?x5168)) 24003)) 1 (ite (<= 25203 (+ (+ ?x870 (- 33 ?x5168)) 24003)) (- 1) 0))))
(let ((?x3584 (ite (> 22803 (+ (+ ?x870 (- 34 ?x5168)) 24003)) 1 (ite (<= 25203 (+ (+ ?x870 (- 34 ?x5168)) 24003)) (- 1) 0))))
(let ((?x5404 (ite (>= ?x2037 (+ (select ?x202 34) ?x3584)) 34 (ite (>= ?x2037 (+ (select ?x202 33) ?x2081)) 33 ?x4792))))
(let ((?x6747 (ite (> 22803 (+ (+ ?x870 (- 35 ?x5168)) 24003)) 1 (ite (<= 25203 (+ (+ ?x870 (- 35 ?x5168)) 24003)) (- 1) 0))))
(let ((?x3149 (ite (> 22803 (+ (+ ?x870 (- 36 ?x5168)) 24003)) 1 (ite (<= 25203 (+ (+ ?x870 (- 36 ?x5168)) 24003)) (- 1) 0))))
(let ((?x6393 (ite (>= ?x2037 (+ (select ?x202 36) ?x3149)) 36 (ite (>= ?x2037 (+ (select ?x202 35) ?x6747)) 35 ?x5404))))
(let ((?x4016 (ite (> 22803 (+ (+ ?x870 (- 37 ?x5168)) 24003)) 1 (ite (<= 25203 (+ (+ ?x870 (- 37 ?x5168)) 24003)) (- 1) 0))))
(let ((?x5599 (ite (> 22803 (+ (+ ?x870 (- 38 ?x5168)) 24003)) 1 (ite (<= 25203 (+ (+ ?x870 (- 38 ?x5168)) 24003)) (- 1) 0))))
(let ((?x5492 (ite (>= ?x2037 (+ (select ?x202 38) ?x5599)) 38 (ite (>= ?x2037 (+ (select ?x202 37) ?x4016)) 37 ?x6393))))
(let ((?x410 (ite (> 22803 (+ (+ ?x870 (- 39 ?x5168)) 24003)) 1 (ite (<= 25203 (+ (+ ?x870 (- 39 ?x5168)) 24003)) (- 1) 0))))
(let ((?x3345 (ite (> 22803 (+ (+ ?x870 (- 40 ?x5168)) 24003)) 1 (ite (<= 25203 (+ (+ ?x870 (- 40 ?x5168)) 24003)) (- 1) 0))))
(let ((?x5136 (ite (>= ?x2037 (+ (select ?x202 40) ?x3345)) 40 (ite (>= ?x2037 (+ (select ?x202 39) ?x410)) 39 ?x5492))))
(let ((?x2434 (ite (> 22803 (+ (+ ?x870 (- 41 ?x5168)) 24003)) 1 (ite (<= 25203 (+ (+ ?x870 (- 41 ?x5168)) 24003)) (- 1) 0))))
(let ((?x3793 (ite (> 22803 (+ (+ ?x870 (- 42 ?x5168)) 24003)) 1 (ite (<= 25203 (+ (+ ?x870 (- 42 ?x5168)) 24003)) (- 1) 0))))
(let ((?x679 (ite (>= ?x2037 (+ (select ?x202 42) ?x3793)) 42 (ite (>= ?x2037 (+ (select ?x202 41) ?x2434)) 41 ?x5136))))
(let ((?x5267 (ite (> 22803 (+ (+ ?x870 (- 43 ?x5168)) 24003)) 1 (ite (<= 25203 (+ (+ ?x870 (- 43 ?x5168)) 24003)) (- 1) 0))))
(let ((?x1994 (ite (> 22803 (+ (+ ?x870 (- 44 ?x5168)) 24003)) 1 (ite (<= 25203 (+ (+ ?x870 (- 44 ?x5168)) 24003)) (- 1) 0))))
(let ((?x4838 (ite (>= ?x2037 (+ (select ?x202 44) ?x1994)) 44 (ite (>= ?x2037 (+ (select ?x202 43) ?x5267)) 43 ?x679))))
(let ((?x1706 (ite (> 22803 (+ (+ ?x870 (- 45 ?x5168)) 24003)) 1 (ite (<= 25203 (+ (+ ?x870 (- 45 ?x5168)) 24003)) (- 1) 0))))
(let ((?x5097 (ite (> 22803 (+ (+ ?x870 (- 46 ?x5168)) 24003)) 1 (ite (<= 25203 (+ (+ ?x870 (- 46 ?x5168)) 24003)) (- 1) 0))))
(let ((?x1153 (ite (>= ?x2037 (+ (select ?x202 46) ?x5097)) 46 (ite (>= ?x2037 (+ (select ?x202 45) ?x1706)) 45 ?x4838))))
(let ((?x1282 (ite (> 22803 (+ (+ ?x870 (- 47 ?x5168)) 24003)) 1 (ite (<= 25203 (+ (+ ?x870 (- 47 ?x5168)) 24003)) (- 1) 0))))
(let ((?x2875 (ite (>= ?x2037 (+ (select ?x202 47) ?x1282)) 47 ?x1153)))
(let ((?x760 (+ ?x870 (- ?x2875 ?x5168))))
(let ((?x4875 (+ ?x760 24003)))
(let ((?x299 (+ (select ?x202 ?x2875) (ite (> 22803 ?x4875) 1 (ite (<= 25203 ?x4875) (- 1) 0)))))
(let ((?x2926 (- ?x2037 ?x299)))
(let ((?x2485 (ite (or (= 22802 ?x4875) (= 25202 ?x4875)) 28 (select ?x108 ?x2875))))
(let (($x3609 (>= 0 (ite (= 1 (ite (>= ?x2926 ?x2485) 1 0)) (- ?x2926 ?x2485) ?x2926))))
(let ((?x1793 (- (+ (* 2023 12) 3) 24003)))
(let ((?x4210 (ite (>= ?x2926 ?x2485) 1 0)))
(let ((?x5579 (+ ?x760 ?x4210)))
(or (< ?x5579 ?x1793) (and (= ?x5579 ?x1793) $x3609))))))))))))))))))))))))))))))))))))))))))))))))))))))))))))))))))))))))))))))))))))))))))))))))))))))))))))))))))))))))))))))))))))))))))))))))))))))))))
(check-sat)
